SDVRP instances/custom_instances/p01_24_splitx10_0.vrp
NAME:p01_24_splitx10_
BEST_KNOWN: 0
COMMENT: 0
DIMENSION: 248
CAPACITY: 1600
EDGE_WEIGHT_FORMAT: FUNCTION
EDGE_WEIGHT_TYPE: EXACT_2D
NODE_COORD_SECTION
1 0.00000 0.00000
2 -4 11
3 -4 11
4 -4 11
5 -4 11
6 -4 11
7 -4 11
8 -4 11
9 9 -33
10 9 -33
11 25 -21
12 25 -21
13 25 -21
14 25 -21
15 25 -21
16 25 -21
17 14 -1
18 14 -1
19 14 -1
20 14 -1
21 14 -1
22 14 -1
23 14 -1
24 -17 22
25 -17 22
26 -17 22
27 -17 22
28 -17 22
29 -17 22
30 44 16
31 44 16
32 44 16
33 44 16
34 44 16
35 15 -38
36 15 -38
37 15 -38
38 15 -38
39 15 -38
40 15 -38
41 -46 50
42 -46 50
43 -46 50
44 -46 50
45 -46 50
46 -46 50
47 -40 25
48 -40 25
49 -40 25
50 -11 17
51 -11 17
52 -11 17
53 35 -39
54 35 -39
55 -11 32
56 -11 32
57 -11 32
58 -11 32
59 -11 32
60 -11 32
61 -11 32
62 -48 -12
63 -48 -12
64 -48 -12
65 -48 -12
66 -4 3
67 -4 3
68 -4 3
69 -4 3
70 -4 3
71 -4 3
72 -30 -8
73 -30 -8
74 -17 -3
75 27 41
76 27 41
77 27 41
78 27 41
79 -13 -27
80 -13 -27
81 -13 -27
82 -13 -27
83 -26 29
84 -26 29
85 -26 29
86 -26 29
87 -26 29
88 -26 29
89 11 45
90 11 45
91 11 45
92 11 45
93 11 45
94 11 45
95 -36 -11
96 -36 -11
97 -36 -11
98 -36 -11
99 -36 -11
100 -36 -11
101 32 -5
102 32 -5
103 32 -5
104 32 -5
105 32 -5
106 -47 -2
107 -47 -2
108 -47 -2
109 -47 -2
110 -47 -2
111 -47 -2
112 -1 11
113 -1 11
114 36 -10
115 36 -10
116 36 -10
117 36 -10
118 36 -10
119 36 -10
120 36 -10
121 -48 -14
122 -48 -14
123 -48 -14
124 -48 -14
125 -49 21
126 -49 21
127 -49 21
128 -49 21
129 -49 21
130 -49 21
131 -49 21
132 -33 -28
133 -33 -28
134 -44 -40
135 -44 -40
136 -44 -40
137 -44 -40
138 -44 -40
139 -44 -40
140 -44 -40
141 23 50
142 23 50
143 23 50
144 23 50
145 23 50
146 9 8
147 9 8
148 9 8
149 9 8
150 9 8
151 9 8
152 6 -2
153 6 -2
154 6 -2
155 6 -2
156 6 -2
157 6 -2
158 29 17
159 29 17
160 27 -24
161 27 -24
162 27 -24
163 10 -9
164 10 -9
165 10 -9
166 -5 -8
167 -5 -8
168 -5 -8
169 38 -18
170 38 -18
171 38 -18
172 38 -18
173 38 -18
174 -46 -40
175 -46 -40
176 -46 -40
177 -46 -40
178 -46 -40
179 -46 -40
180 12 23
181 12 23
182 12 23
183 12 23
184 12 23
185 12 23
186 12 23
187 21 -8
188 21 -8
189 21 -8
190 21 -8
191 21 -8
192 -46 36
193 -46 36
194 -46 36
195 -46 36
196 -15 -24
197 -15 -24
198 -15 -24
199 -15 -24
200 -15 -24
201 -15 -24
202 -17 -24
203 -17 -24
204 -17 -24
205 -17 -24
206 37 17
207 37 17
208 37 17
209 37 17
210 37 17
211 37 17
212 37 17
213 -34 -41
214 -34 -41
215 -34 -41
216 -34 -41
217 -34 -41
218 -34 -41
219 -34 -41
220 -42 16
221 -42 16
222 -42 16
223 -42 16
224 -42 16
225 -42 16
226 -42 16
227 40 -33
228 40 -33
229 40 -33
230 40 -33
231 -14 43
232 -14 43
233 -14 43
234 33 32
235 33 32
236 33 32
237 33 32
238 33 32
239 33 32
240 33 32
241 -49 -30
242 -49 -30
243 -49 -30
244 -49 -30
245 -49 -30
246 -49 -30
247 -49 -30
248 -49 -30
DEMAND_SECTION
1 0
2 320
3 80
4 16
5 16
6 16
7 16
8 6
9 320
10 10
11 160
12 16
13 16
14 16
15 16
16 6
17 320
18 320
19 80
20 16
21 16
22 16
23 2
24 320
25 160
26 16
27 16
28 16
29 2
30 320
31 80
32 16
33 16
34 8
35 320
36 320
37 80
38 16
39 16
40 8
41 320
42 320
43 16
44 16
45 16
46 2
47 320
48 320
49 80
50 320
51 320
52 160
53 320
54 160
55 320
56 80
57 16
58 16
59 16
60 16
61 6
62 320
63 160
64 16
65 14
66 320
67 160
68 80
69 16
70 16
71 8
72 320
73 160
74 320
75 320
76 320
77 80
78 10
79 320
80 160
81 16
82 14
83 320
84 80
85 16
86 16
87 16
88 12
89 160
90 80
91 16
92 16
93 16
94 12
95 320
96 320
97 16
98 16
99 16
100 2
101 320
102 320
103 80
104 16
105 14
106 320
107 320
108 16
109 16
110 16
111 12
112 320
113 320
114 320
115 160
116 80
117 16
118 16
119 16
120 2
121 320
122 160
123 80
124 10
125 320
126 80
127 16
128 16
129 16
130 16
131 6
132 160
133 80
134 320
135 160
136 16
137 16
138 16
139 16
140 6
141 320
142 320
143 80
144 16
145 4
146 160
147 80
148 16
149 16
150 16
151 2
152 320
153 320
154 80
155 16
156 16
157 8
158 160
159 80
160 320
161 320
162 10
163 320
164 320
165 10
166 320
167 160
168 80
169 320
170 160
171 80
172 16
173 14
174 320
175 160
176 16
177 16
178 16
179 12
180 320
181 320
182 80
183 16
184 16
185 16
186 12
187 320
188 16
189 16
190 16
191 12
192 320
193 320
194 16
195 4
196 320
197 160
198 80
199 16
200 16
201 8
202 320
203 80
204 16
205 14
206 160
207 80
208 16
209 16
210 16
211 16
212 6
213 320
214 320
215 80
216 16
217 16
218 16
219 12
220 320
221 160
222 80
223 16
224 16
225 16
226 12
227 320
228 320
229 80
230 10
231 160
232 80
233 10
234 320
235 80
236 16
237 16
238 16
239 16
240 6
241 320
242 160
243 80
244 16
245 16
246 16
247 16
248 6
DEPOT_SECTION
1
-1
EOF