SDVRP instances/custom_instances/p01_24_splitx10_0.sol
247 -8 9 39 34 36 37 38 35 163 -19 22 18 16 20 17 21 155 151 156 152 154 153 -27 25 28 26 24 23 82 232 230 231 57 55 58 54 56 60 59 -48 46 47 128 130 126 127 125 124 129 224 222 219 223 225 -50 49 51 4 6 2 5 7 3 1 112 -52 53 229 226 228 227 118 116 119 117 113 -70 68 66 69 67 65 166 167 165 -72 62 63 64 61 121 123 120 122 98 94 -73 71 105 106 110 108 107 109 221 220 -77 76 75 74 144 140 141 143 142 185 182 181 184 -78 81 80 79 195 200 199 198 197 196 202 204 203 201 -87 86 84 85 83 41 42 44 43 40 45 194 191 193 192 -99 96 97 95 245 246 247 244 240 242 241 243 177 178 173 176 174 175 -101 100 104 103 102 115 114 171 169 168 170 172 -111 89 88 93 92 90 91 179 180 183 149 148 145 147 146 150 -132 131 134 139 138 136 135 137 133 218 214 215 212 216 217 213 -158 157 210 205 207 208 209 211 206 29 31 30 32 33 234 239 235 233 236 237 238 -164 162 161 160 159 15 11 10 14 12 13 187 189 190 186 188 0 





OBJ=
1680.765
BEST_KNOWN=
0.000